benchmarks/bfuzz0/7793895831138961723051120023665416.smt2
(set-logic QF_FP)
(declare-const x0 (_ FloatingPoint 11 53))
(declare-const x1 (_ FloatingPoint 11 53))
(declare-const x2 (_ FloatingPoint 11 53))
(declare-const x3 (_ FloatingPoint 11 53))
(declare-const x4 (_ FloatingPoint 11 53))
(declare-const x5 (_ FloatingPoint 11 53))
(declare-const x6 (_ FloatingPoint 11 53))
(declare-const x7 (_ FloatingPoint 11 53))
(declare-const x8 (_ FloatingPoint 11 53))
(declare-const x9 (_ FloatingPoint 11 53))
(declare-const x10 (_ FloatingPoint 11 53))
(declare-const x11 (_ FloatingPoint 11 53))
(declare-const x12 (_ FloatingPoint 11 53))
(declare-const x13 (_ FloatingPoint 11 53))
(declare-const x14 (_ FloatingPoint 11 53))
(declare-const x15 (_ FloatingPoint 11 53))
(declare-const x16 (_ FloatingPoint 11 53))
(assert (fp.lt (fp.sub RNE (fp.add RNE x10 x15) (fp.mul RNE x0 x5)) (fp.mul RNE (fp.mul RNE x9 x5) (fp.mul RNE x14 x9))))
(assert (fp.eq (fp.add RNE (fp.sub RNE x10 x15) (fp.neg x11)) (fp.add RNE (fp.div RNE x16 x0) (fp.neg x15))))
(check-sat)
