db/data/7793895831138961723051120023665416.z3.out
sat
-------------------
2314.998046726
